17 200
0 0 100 100 0 0 1501 0 0 0
1 343 100 70 30 30 75 90 0 318
2 269 101 70 20 0 1381 90 0 100
3 64 103 70 10 176 250 90 0 145
4 208 105 70 10 278 333 0 0 402
5 187 123 4 10 717 774 90 0 45
6 109 139 7 20 0 1311 90 0 282
7 172 140 6 30 0 1309 90 0 75
8 309 123 36 10 0 1343 0 0 419
9 318 103 66 -30 541 618 90 343 0
10 100 104 68 -20 0 1379 90 269 0
11 145 103 67 -10 463 515 90 64 0
12 402 105 70 -10 278 333 90 208 0
13 45 119 37 -10 0 1346 90 187 0
14 282 141 4 -20 0 1307 90 109 0
15 75 137 4 -30 1091 1146 90 172 0
16 419 123 36 -10 0 1343 90 309 0

